c File: instances/30_0.65_1.col
c
c Description: Random graph of size 30 vertices and P(0.65) of edges between any two vertices.
p col 30 435
e 1 5
e 1 6
e 1 8
e 1 10
e 1 12
e 1 13
e 1 14
e 1 15
e 1 16
e 1 17
e 1 18
e 1 20
e 1 23
e 1 24
e 1 26
e 1 28
e 1 29
e 1 30
e 2 4
e 2 5
e 2 6
e 2 8
e 2 9
e 2 10
e 2 11
e 2 14
e 2 17
e 2 18
e 2 19
e 2 20
e 2 22
e 2 23
e 2 24
e 2 25
e 2 26
e 2 27
e 2 29
e 2 30
e 3 4
e 3 5
e 3 6
e 3 7
e 3 9
e 3 10
e 3 11
e 3 12
e 3 13
e 3 16
e 3 17
e 3 18
e 3 19
e 3 21
e 3 22
e 3 23
e 3 24
e 3 26
e 3 27
e 3 28
e 3 29
e 4 6
e 4 9
e 4 11
e 4 12
e 4 14
e 4 15
e 4 16
e 4 17
e 4 18
e 4 19
e 4 20
e 4 25
e 4 26
e 4 27
e 4 28
e 4 29
e 4 30
e 5 6
e 5 10
e 5 11
e 5 12
e 5 13
e 5 14
e 5 15
e 5 17
e 5 18
e 5 19
e 5 21
e 5 22
e 5 23
e 5 24
e 5 26
e 5 27
e 5 28
e 5 29
e 5 30
e 6 9
e 6 10
e 6 12
e 6 13
e 6 15
e 6 16
e 6 17
e 6 18
e 6 19
e 6 20
e 6 21
e 6 26
e 6 27
e 6 28
e 6 29
e 6 30
e 7 8
e 7 10
e 7 11
e 7 15
e 7 16
e 7 19
e 7 20
e 7 21
e 7 23
e 7 25
e 7 26
e 7 27
e 7 28
e 7 29
e 7 30
e 8 10
e 8 13
e 8 14
e 8 17
e 8 18
e 8 20
e 8 21
e 8 22
e 8 23
e 8 25
e 8 27
e 8 28
e 8 30
e 9 10
e 9 12
e 9 13
e 9 14
e 9 17
e 9 18
e 9 19
e 9 20
e 9 22
e 9 23
e 9 24
e 9 25
e 9 26
e 9 28
e 9 29
e 9 30
e 10 11
e 10 12
e 10 15
e 10 16
e 10 17
e 10 19
e 10 20
e 10 21
e 10 22
e 10 23
e 10 24
e 10 27
e 11 12
e 11 13
e 11 17
e 11 19
e 11 20
e 11 21
e 11 22
e 11 25
e 11 26
e 11 27
e 11 29
e 11 30
e 12 13
e 12 16
e 12 17
e 12 18
e 12 19
e 12 20
e 12 24
e 12 26
e 12 27
e 12 28
e 12 30
e 13 14
e 13 15
e 13 16
e 13 17
e 13 18
e 13 19
e 13 20
e 13 21
e 13 22
e 13 26
e 13 27
e 13 28
e 13 29
e 14 15
e 14 17
e 14 18
e 14 20
e 14 21
e 14 22
e 14 23
e 14 24
e 14 26
e 14 29
e 15 16
e 15 17
e 15 18
e 15 19
e 15 20
e 15 21
e 15 22
e 15 23
e 15 24
e 15 25
e 15 28
e 15 29
e 15 30
e 16 20
e 16 21
e 16 24
e 16 27
e 17 18
e 17 22
e 17 23
e 17 24
e 17 25
e 17 26
e 17 27
e 17 29
e 18 19
e 18 21
e 18 22
e 18 25
e 18 26
e 18 28
e 18 30
e 19 20
e 19 21
e 19 23
e 19 24
e 19 25
e 19 26
e 19 27
e 19 29
e 19 30
e 20 21
e 20 30
e 21 22
e 21 23
e 21 25
e 21 26
e 21 27
e 21 28
e 21 30
e 22 23
e 22 24
e 22 28
e 22 29
e 22 30
e 23 24
e 23 26
e 23 27
e 23 28
e 23 29
e 24 25
e 24 26
e 24 28
e 24 29
e 25 28
e 25 30
e 26 27
e 26 28
e 26 29
e 26 30
e 27 29
e 28 29
e 29 30